;; For ease of use, we are using the Int sort instead of the BitVec sort.

(declare-const x Int)
(declare-const y Int)
(declare-const a1 Int)
(declare-const a2 Int)
(declare-const a3 Int)

;;;;;;;;;;;;;;;;; START STUDENT CODE ;;;;;;;;;;;;;;;


;;;;;;;;;;;;;;;;; END STUDENT CODE ;;;;;;;;;;;;;;;
